p cnf 167 912
1 -69 0
1 -70 0
69 -69 0
70 -70 0
18 -75 0
18 -76 0
75 -75 0
76 -76 0
35 -81 0
35 -82 0
81 -81 0
82 -82 0
52 -87 0
52 -88 0
87 -87 0
88 -88 0
2 -69 0
2 -70 0
69 -69 0
70 -70 0
19 -75 0
19 -76 0
75 -75 0
76 -76 0
36 -81 0
36 -82 0
81 -81 0
82 -82 0
53 -87 0
53 -88 0
87 -87 0
88 -88 0
3 -69 0
3 -70 0
69 -69 0
70 -70 0
20 -75 0
20 -76 0
75 -75 0
76 -76 0
37 -81 0
37 -82 0
81 -81 0
82 -82 0
54 -87 0
54 -88 0
87 -87 0
88 -88 0
4 -69 0
4 -70 0
69 -69 0
70 -70 0
21 -75 0
21 -76 0
75 -75 0
76 -76 0
38 -81 0
38 -82 0
81 -81 0
82 -82 0
55 -87 0
55 -88 0
87 -87 0
88 -88 0
5 -69 0
5 -70 0
69 -69 0
70 -70 0
22 -75 0
22 -76 0
75 -75 0
76 -76 0
39 -81 0
39 -82 0
81 -81 0
82 -82 0
56 -87 0
56 -88 0
87 -87 0
88 -88 0
6 -93 -69 0
-6 93 -69 0
6 93 -70 0
-6 -93 -70 0
23 -93 -75 0
-23 93 -75 0
23 93 -76 0
-23 -93 -76 0
40 -93 -81 0
-40 93 -81 0
40 93 -82 0
-40 -93 -82 0
57 -93 -87 0
-57 93 -87 0
57 93 -88 0
-57 -93 -88 0
7 -94 -69 0
-7 94 -69 0
7 94 -70 0
-7 -94 -70 0
24 -94 -75 0
-24 94 -75 0
24 94 -76 0
-24 -94 -76 0
41 -94 -81 0
-41 94 -81 0
41 94 -82 0
-41 -94 -82 0
58 -94 -87 0
-58 94 -87 0
58 94 -88 0
-58 -94 -88 0
8 -69 0
8 -70 0
69 -69 0
70 -70 0
25 -75 0
25 -76 0
75 -75 0
76 -76 0
42 -81 0
42 -82 0
81 -81 0
82 -82 0
59 -87 0
59 -88 0
87 -87 0
88 -88 0
9 -69 0
9 -70 0
69 -69 0
70 -70 0
26 -75 0
26 -76 0
75 -75 0
76 -76 0
43 -81 0
43 -82 0
81 -81 0
82 -82 0
60 -87 0
60 -88 0
87 -87 0
88 -88 0
10 -69 0
10 -70 0
69 -69 0
70 -70 0
27 -75 0
27 -76 0
75 -75 0
76 -76 0
44 -81 0
44 -82 0
81 -81 0
82 -82 0
61 -87 0
61 -88 0
87 -87 0
88 -88 0
11 -69 0
11 -70 0
69 -69 0
70 -70 0
28 -75 0
28 -76 0
75 -75 0
76 -76 0
45 -81 0
45 -82 0
81 -81 0
82 -82 0
62 -87 0
62 -88 0
87 -87 0
88 -88 0
12 -69 0
12 -70 0
69 -69 0
70 -70 0
29 -75 0
29 -76 0
75 -75 0
76 -76 0
46 -81 0
46 -82 0
81 -81 0
82 -82 0
63 -87 0
63 -88 0
87 -87 0
88 -88 0
-13 -69 0
-13 -70 0
69 -69 0
70 -70 0
-30 -75 0
-30 -76 0
75 -75 0
76 -76 0
-47 -81 0
-47 -82 0
81 -81 0
82 -82 0
-64 -87 0
-64 -88 0
87 -87 0
88 -88 0
14 -69 0
14 -70 0
69 -69 0
70 -70 0
31 -75 0
31 -76 0
75 -75 0
76 -76 0
48 -81 0
48 -82 0
81 -81 0
82 -82 0
65 -87 0
65 -88 0
87 -87 0
88 -88 0
15 -69 0
15 -70 0
69 -69 0
70 -70 0
32 -75 0
32 -76 0
75 -75 0
76 -76 0
49 -81 0
49 -82 0
81 -81 0
82 -82 0
66 -87 0
66 -88 0
87 -87 0
88 -88 0
-16 -69 0
-16 -70 0
69 -69 0
70 -70 0
-33 -75 0
-33 -76 0
75 -75 0
76 -76 0
-50 -81 0
-50 -82 0
81 -81 0
82 -82 0
-67 -87 0
-67 -88 0
87 -87 0
88 -88 0
-17 -69 0
-17 -70 0
69 -69 0
70 -70 0
-34 -75 0
-34 -76 0
75 -75 0
76 -76 0
-51 -81 0
-51 -82 0
81 -81 0
82 -82 0
-68 -87 0
-68 -88 0
87 -87 0
88 -88 0
-144 69 0
144 -69 0
-145 70 0
144 -70 0
-144 -69 0
-145 -70 0
-150 69 144 0
150 -69 0
150 -144 0
-151 70 145 0
151 -70 0
151 -145 0
-150 -75 0
-151 -76 0
-156 75 150 0
156 -75 0
156 -150 0
-157 76 151 0
157 -76 0
157 -151 0
-156 -81 0
-157 -82 0
-162 81 156 0
162 -81 0
162 -156 0
-163 82 157 0
163 -82 0
163 -157 0
-162 -87 0
-163 -88 0
162 0
163 0
1 -95 -71 0
-1 95 -71 0
1 95 -72 0
-1 -95 -72 0
18 -95 -77 0
-18 95 -77 0
18 95 -78 0
-18 -95 -78 0
35 -95 -83 0
-35 95 -83 0
35 95 -84 0
-35 -95 -84 0
52 -95 -89 0
-52 95 -89 0
52 95 -90 0
-52 -95 -90 0
2 -71 0
2 -72 0
71 -71 0
72 -72 0
19 -77 0
19 -78 0
77 -77 0
78 -78 0
36 -83 0
36 -84 0
83 -83 0
84 -84 0
53 -89 0
53 -90 0
89 -89 0
90 -90 0
3 -71 0
3 -72 0
71 -71 0
72 -72 0
20 -77 0
20 -78 0
77 -77 0
78 -78 0
37 -83 0
37 -84 0
83 -83 0
84 -84 0
54 -89 0
54 -90 0
89 -89 0
90 -90 0
4 -71 0
4 -72 0
71 -71 0
72 -72 0
21 -77 0
21 -78 0
77 -77 0
78 -78 0
38 -83 0
38 -84 0
83 -83 0
84 -84 0
55 -89 0
55 -90 0
89 -89 0
90 -90 0
5 -96 -71 0
-5 96 -71 0
5 96 -72 0
-5 -96 -72 0
22 -96 -77 0
-22 96 -77 0
22 96 -78 0
-22 -96 -78 0
39 -96 -83 0
-39 96 -83 0
39 96 -84 0
-39 -96 -84 0
56 -96 -89 0
-56 96 -89 0
56 96 -90 0
-56 -96 -90 0
6 -97 -71 0
-6 97 -71 0
6 97 -72 0
-6 -97 -72 0
23 -97 -77 0
-23 97 -77 0
23 97 -78 0
-23 -97 -78 0
40 -97 -83 0
-40 97 -83 0
40 97 -84 0
-40 -97 -84 0
57 -97 -89 0
-57 97 -89 0
57 97 -90 0
-57 -97 -90 0
7 -98 -71 0
-7 98 -71 0
7 98 -72 0
-7 -98 -72 0
24 -98 -77 0
-24 98 -77 0
24 98 -78 0
-24 -98 -78 0
41 -98 -83 0
-41 98 -83 0
41 98 -84 0
-41 -98 -84 0
58 -98 -89 0
-58 98 -89 0
58 98 -90 0
-58 -98 -90 0
8 -71 0
8 -72 0
71 -71 0
72 -72 0
25 -77 0
25 -78 0
77 -77 0
78 -78 0
42 -83 0
42 -84 0
83 -83 0
84 -84 0
59 -89 0
59 -90 0
89 -89 0
90 -90 0
9 -71 0
9 -72 0
71 -71 0
72 -72 0
26 -77 0
26 -78 0
77 -77 0
78 -78 0
43 -83 0
43 -84 0
83 -83 0
84 -84 0
60 -89 0
60 -90 0
89 -89 0
90 -90 0
10 -99 -71 0
-10 99 -71 0
10 99 -72 0
-10 -99 -72 0
27 -99 -77 0
-27 99 -77 0
27 99 -78 0
-27 -99 -78 0
44 -99 -83 0
-44 99 -83 0
44 99 -84 0
-44 -99 -84 0
61 -99 -89 0
-61 99 -89 0
61 99 -90 0
-61 -99 -90 0
11 -71 0
11 -72 0
71 -71 0
72 -72 0
28 -77 0
28 -78 0
77 -77 0
78 -78 0
45 -83 0
45 -84 0
83 -83 0
84 -84 0
62 -89 0
62 -90 0
89 -89 0
90 -90 0
12 -71 0
12 -72 0
71 -71 0
72 -72 0
29 -77 0
29 -78 0
77 -77 0
78 -78 0
46 -83 0
46 -84 0
83 -83 0
84 -84 0
63 -89 0
63 -90 0
89 -89 0
90 -90 0
13 -100 -71 0
-13 100 -71 0
13 100 -72 0
-13 -100 -72 0
30 -100 -77 0
-30 100 -77 0
30 100 -78 0
-30 -100 -78 0
47 -100 -83 0
-47 100 -83 0
47 100 -84 0
-47 -100 -84 0
64 -100 -89 0
-64 100 -89 0
64 100 -90 0
-64 -100 -90 0
14 -71 0
14 -72 0
71 -71 0
72 -72 0
31 -77 0
31 -78 0
77 -77 0
78 -78 0
48 -83 0
48 -84 0
83 -83 0
84 -84 0
65 -89 0
65 -90 0
89 -89 0
90 -90 0
15 -101 -71 0
-15 101 -71 0
15 101 -72 0
-15 -101 -72 0
32 -101 -77 0
-32 101 -77 0
32 101 -78 0
-32 -101 -78 0
49 -101 -83 0
-49 101 -83 0
49 101 -84 0
-49 -101 -84 0
66 -101 -89 0
-66 101 -89 0
66 101 -90 0
-66 -101 -90 0
16 -102 -71 0
-16 102 -71 0
16 102 -72 0
-16 -102 -72 0
33 -102 -77 0
-33 102 -77 0
33 102 -78 0
-33 -102 -78 0
50 -102 -83 0
-50 102 -83 0
50 102 -84 0
-50 -102 -84 0
67 -102 -89 0
-67 102 -89 0
67 102 -90 0
-67 -102 -90 0
17 -103 -71 0
-17 103 -71 0
17 103 -72 0
-17 -103 -72 0
34 -103 -77 0
-34 103 -77 0
34 103 -78 0
-34 -103 -78 0
51 -103 -83 0
-51 103 -83 0
51 103 -84 0
-51 -103 -84 0
68 -103 -89 0
-68 103 -89 0
68 103 -90 0
-68 -103 -90 0
-146 71 0
146 -71 0
-147 72 0
146 -72 0
-146 -71 0
-147 -72 0
-152 71 146 0
152 -71 0
152 -146 0
-153 72 147 0
153 -72 0
153 -147 0
-152 -77 0
-153 -78 0
-158 77 152 0
158 -77 0
158 -152 0
-159 78 153 0
159 -78 0
159 -153 0
-158 -83 0
-159 -84 0
-164 83 158 0
164 -83 0
164 -158 0
-165 84 159 0
165 -84 0
165 -159 0
-164 -89 0
-165 -90 0
164 0
165 0
-1 -73 0
-1 -74 0
73 -73 0
74 -74 0
-18 -79 0
-18 -80 0
79 -79 0
80 -80 0
-35 -85 0
-35 -86 0
85 -85 0
86 -86 0
-52 -91 0
-52 -92 0
91 -91 0
92 -92 0
2 -73 0
2 -74 0
73 -73 0
74 -74 0
19 -79 0
19 -80 0
79 -79 0
80 -80 0
36 -85 0
36 -86 0
85 -85 0
86 -86 0
53 -91 0
53 -92 0
91 -91 0
92 -92 0
3 -73 0
3 -74 0
73 -73 0
74 -74 0
20 -79 0
20 -80 0
79 -79 0
80 -80 0
37 -85 0
37 -86 0
85 -85 0
86 -86 0
54 -91 0
54 -92 0
91 -91 0
92 -92 0
4 -73 0
4 -74 0
73 -73 0
74 -74 0
21 -79 0
21 -80 0
79 -79 0
80 -80 0
38 -85 0
38 -86 0
85 -85 0
86 -86 0
55 -91 0
55 -92 0
91 -91 0
92 -92 0
5 -73 0
5 -74 0
73 -73 0
74 -74 0
22 -79 0
22 -80 0
79 -79 0
80 -80 0
39 -85 0
39 -86 0
85 -85 0
86 -86 0
56 -91 0
56 -92 0
91 -91 0
92 -92 0
6 -104 -73 0
-6 104 -73 0
6 104 -74 0
-6 -104 -74 0
23 -104 -79 0
-23 104 -79 0
23 104 -80 0
-23 -104 -80 0
40 -104 -85 0
-40 104 -85 0
40 104 -86 0
-40 -104 -86 0
57 -104 -91 0
-57 104 -91 0
57 104 -92 0
-57 -104 -92 0
7 -105 -73 0
-7 105 -73 0
7 105 -74 0
-7 -105 -74 0
24 -105 -79 0
-24 105 -79 0
24 105 -80 0
-24 -105 -80 0
41 -105 -85 0
-41 105 -85 0
41 105 -86 0
-41 -105 -86 0
58 -105 -91 0
-58 105 -91 0
58 105 -92 0
-58 -105 -92 0
8 -106 -73 0
-8 106 -73 0
8 106 -74 0
-8 -106 -74 0
25 -106 -79 0
-25 106 -79 0
25 106 -80 0
-25 -106 -80 0
42 -106 -85 0
-42 106 -85 0
42 106 -86 0
-42 -106 -86 0
59 -106 -91 0
-59 106 -91 0
59 106 -92 0
-59 -106 -92 0
9 -107 -73 0
-9 107 -73 0
9 107 -74 0
-9 -107 -74 0
26 -107 -79 0
-26 107 -79 0
26 107 -80 0
-26 -107 -80 0
43 -107 -85 0
-43 107 -85 0
43 107 -86 0
-43 -107 -86 0
60 -107 -91 0
-60 107 -91 0
60 107 -92 0
-60 -107 -92 0
10 -108 -73 0
-10 108 -73 0
10 108 -74 0
-10 -108 -74 0
27 -108 -79 0
-27 108 -79 0
27 108 -80 0
-27 -108 -80 0
44 -108 -85 0
-44 108 -85 0
44 108 -86 0
-44 -108 -86 0
61 -108 -91 0
-61 108 -91 0
61 108 -92 0
-61 -108 -92 0
11 -109 -73 0
-11 109 -73 0
11 109 -74 0
-11 -109 -74 0
28 -109 -79 0
-28 109 -79 0
28 109 -80 0
-28 -109 -80 0
45 -109 -85 0
-45 109 -85 0
45 109 -86 0
-45 -109 -86 0
62 -109 -91 0
-62 109 -91 0
62 109 -92 0
-62 -109 -92 0
12 -110 -73 0
-12 110 -73 0
12 110 -74 0
-12 -110 -74 0
29 -110 -79 0
-29 110 -79 0
29 110 -80 0
-29 -110 -80 0
46 -110 -85 0
-46 110 -85 0
46 110 -86 0
-46 -110 -86 0
63 -110 -91 0
-63 110 -91 0
63 110 -92 0
-63 -110 -92 0
13 -73 0
13 -74 0
73 -73 0
74 -74 0
30 -79 0
30 -80 0
79 -79 0
80 -80 0
47 -85 0
47 -86 0
85 -85 0
86 -86 0
64 -91 0
64 -92 0
91 -91 0
92 -92 0
14 -111 -73 0
-14 111 -73 0
14 111 -74 0
-14 -111 -74 0
31 -111 -79 0
-31 111 -79 0
31 111 -80 0
-31 -111 -80 0
48 -111 -85 0
-48 111 -85 0
48 111 -86 0
-48 -111 -86 0
65 -111 -91 0
-65 111 -91 0
65 111 -92 0
-65 -111 -92 0
15 -112 -73 0
-15 112 -73 0
15 112 -74 0
-15 -112 -74 0
32 -112 -79 0
-32 112 -79 0
32 112 -80 0
-32 -112 -80 0
49 -112 -85 0
-49 112 -85 0
49 112 -86 0
-49 -112 -86 0
66 -112 -91 0
-66 112 -91 0
66 112 -92 0
-66 -112 -92 0
16 -73 0
16 -74 0
73 -73 0
74 -74 0
33 -79 0
33 -80 0
79 -79 0
80 -80 0
50 -85 0
50 -86 0
85 -85 0
86 -86 0
67 -91 0
67 -92 0
91 -91 0
92 -92 0
17 -73 0
17 -74 0
73 -73 0
74 -74 0
34 -79 0
34 -80 0
79 -79 0
80 -80 0
51 -85 0
51 -86 0
85 -85 0
86 -86 0
68 -91 0
68 -92 0
91 -91 0
92 -92 0
-148 73 0
148 -73 0
-149 74 0
148 -74 0
-148 -73 0
-149 -74 0
-154 73 148 0
154 -73 0
154 -148 0
-155 74 149 0
155 -74 0
155 -149 0
-154 -79 0
-155 -80 0
-160 79 154 0
160 -79 0
160 -154 0
-161 80 155 0
161 -80 0
161 -155 0
-160 -85 0
-161 -86 0
-166 85 160 0
166 -85 0
166 -160 0
-167 86 161 0
167 -86 0
167 -161 0
-166 -91 0
-167 -92 0
166 0
167 0
